(declare-const X String)
; ^[0]{1}[19]{1}[0-9]{8,9}$
(assert (not (str.in_re X (re.++ ((_ re.loop 1 1) (str.to_re "0")) ((_ re.loop 1 1) (re.union (str.to_re "1") (str.to_re "9"))) ((_ re.loop 8 9) (re.range "0" "9")) (str.to_re "\u{a}")))))
; ovpl\s+\u{7D}\u{7B}Port\u{3A}.*SOAPAction\u{3A}.*adfsgecoiwnfHost\u{3A}\u{3F}search\u{3D}
(assert (str.in_re X (re.++ (str.to_re "ovpl") (re.+ (re.union (str.to_re " ") (str.to_re "\u{9}") (str.to_re "\u{a}") (str.to_re "\u{c}") (str.to_re "\u{d}"))) (str.to_re "}{Port:") (re.* re.allchar) (str.to_re "SOAPAction:") (re.* re.allchar) (str.to_re "adfsgecoiwnf\u{1b}Host:?search=\u{a}"))))
; \b([0]?[1-9]|[1,2]\d|3[0,1])[-/]([0]?[1-9]|[1][0,1,2])[-/](\d{1,2}|[1][9]\d\d|[2][0]\d\d)\b
(assert (not (str.in_re X (re.++ (re.union (re.++ (re.opt (str.to_re "0")) (re.range "1" "9")) (re.++ (re.union (str.to_re "1") (str.to_re ",") (str.to_re "2")) (re.range "0" "9")) (re.++ (str.to_re "3") (re.union (str.to_re "0") (str.to_re ",") (str.to_re "1")))) (re.union (str.to_re "-") (str.to_re "/")) (re.union (re.++ (re.opt (str.to_re "0")) (re.range "1" "9")) (re.++ (str.to_re "1") (re.union (str.to_re "0") (str.to_re ",") (str.to_re "1") (str.to_re "2")))) (re.union (str.to_re "-") (str.to_re "/")) (re.union ((_ re.loop 1 2) (re.range "0" "9")) (re.++ (str.to_re "19") (re.range "0" "9") (re.range "0" "9")) (re.++ (str.to_re "20") (re.range "0" "9") (re.range "0" "9"))) (str.to_re "\u{a}")))))
; ^((((([1-9])|(0[1-9])|(1\d)|(2[0-8]))/(([1-9])|(0[1-9])|(1[0-2])))|((31/(((0[13578])|([13578]))|(1[02])))|((29|30)/(((0[1,3-9])|([1,3-9]))|(1[0-2])))))/((20[0-9][0-9]))|(((([1-9])|(0[1-9])|(1\d)|(2[0-8]))/(([1-9])|(0[1-9])|(1[0-2])))|((31/(((0[13578])|([13578]))|(1[02])))|((29|30)/(((0[1,3-9])|([1,3-9]))|(1[0-2])))))/((19[0-9][0-9]))|(29/(02|2)/20(([02468][048])|([13579][26])))|(29/(02|2)/19(([02468][048])|([13579][26]))))$
(assert (str.in_re X (re.++ (re.union (re.++ (re.union (re.++ (re.union (re.range "1" "9") (re.++ (str.to_re "0") (re.range "1" "9")) (re.++ (str.to_re "1") (re.range "0" "9")) (re.++ (str.to_re "2") (re.range "0" "8"))) (str.to_re "/") (re.union (re.range "1" "9") (re.++ (str.to_re "0") (re.range "1" "9")) (re.++ (str.to_re "1") (re.range "0" "2")))) (re.++ (str.to_re "31/") (re.union (re.++ (str.to_re "1") (re.union (str.to_re "0") (str.to_re "2"))) (re.++ (str.to_re "0") (re.union (str.to_re "1") (str.to_re "3") (str.to_re "5") (str.to_re "7") (str.to_re "8"))) (str.to_re "1") (str.to_re "3") (str.to_re "5") (str.to_re "7") (str.to_re "8"))) (re.++ (re.union (str.to_re "29") (str.to_re "30")) (str.to_re "/") (re.union (re.++ (str.to_re "1") (re.range "0" "2")) (re.++ (str.to_re "0") (re.union (str.to_re "1") (str.to_re ",") (re.range "3" "9"))) (str.to_re "1") (str.to_re ",") (re.range "3" "9")))) (str.to_re "/20") (re.range "0" "9") (re.range "0" "9")) (re.++ (re.union (re.++ (re.union (re.range "1" "9") (re.++ (str.to_re "0") (re.range "1" "9")) (re.++ (str.to_re "1") (re.range "0" "9")) (re.++ (str.to_re "2") (re.range "0" "8"))) (str.to_re "/") (re.union (re.range "1" "9") (re.++ (str.to_re "0") (re.range "1" "9")) (re.++ (str.to_re "1") (re.range "0" "2")))) (re.++ (str.to_re "31/") (re.union (re.++ (str.to_re "1") (re.union (str.to_re "0") (str.to_re "2"))) (re.++ (str.to_re "0") (re.union (str.to_re "1") (str.to_re "3") (str.to_re "5") (str.to_re "7") (str.to_re "8"))) (str.to_re "1") (str.to_re "3") (str.to_re "5") (str.to_re "7") (str.to_re "8"))) (re.++ (re.union (str.to_re "29") (str.to_re "30")) (str.to_re "/") (re.union (re.++ (str.to_re "1") (re.range "0" "2")) (re.++ (str.to_re "0") (re.union (str.to_re "1") (str.to_re ",") (re.range "3" "9"))) (str.to_re "1") (str.to_re ",") (re.range "3" "9")))) (str.to_re "/19") (re.range "0" "9") (re.range "0" "9")) (re.++ (str.to_re "29/") (re.union (str.to_re "02") (str.to_re "2")) (str.to_re "/20") (re.union (re.++ (re.union (str.to_re "0") (str.to_re "2") (str.to_re "4") (str.to_re "6") (str.to_re "8")) (re.union (str.to_re "0") (str.to_re "4") (str.to_re "8"))) (re.++ (re.union (str.to_re "1") (str.to_re "3") (str.to_re "5") (str.to_re "7") (str.to_re "9")) (re.union (str.to_re "2") (str.to_re "6"))))) (re.++ (str.to_re "29/") (re.union (str.to_re "02") (str.to_re "2")) (str.to_re "/19") (re.union (re.++ (re.union (str.to_re "0") (str.to_re "2") (str.to_re "4") (str.to_re "6") (str.to_re "8")) (re.union (str.to_re "0") (str.to_re "4") (str.to_re "8"))) (re.++ (re.union (str.to_re "1") (str.to_re "3") (str.to_re "5") (str.to_re "7") (str.to_re "9")) (re.union (str.to_re "2") (str.to_re "6")))))) (str.to_re "\u{a}"))))
; /filename=[^\n]*\u{2e}dvr-ms/i
(assert (str.in_re X (re.++ (str.to_re "/filename=") (re.* (re.comp (str.to_re "\u{a}"))) (str.to_re ".dvr-ms/i\u{a}"))))
(check-sat)
